Version identifier: 12.10.0.0 | 2019-11-26 | 843d4de
CPXPARAM_WorkMem                                 28672
Tried aggregator 2 times.
Aggregator did 40 substitutions.
Reduced MIP has 143 rows, 180 columns, and 669 nonzeros.
Reduced MIP has 180 binaries, 0 generals, 0 SOSs, and 0 indicators.
Presolve time = 0,00 sec. (0,63 ticks)
Found incumbent of value 120,000000 after 0,00 sec. (1,08 ticks)
Probing time = 0,00 sec. (0,20 ticks)
Tried aggregator 1 time.
Detecting symmetries...
MIP Presolve eliminated 15 rows and 0 columns.
MIP Presolve added 30 rows and 0 columns.
Reduced MIP has 158 rows, 180 columns, and 684 nonzeros.
Reduced MIP has 180 binaries, 0 generals, 0 SOSs, and 0 indicators.
Presolve time = 0,00 sec. (0,75 ticks)
Probing time = 0,00 sec. (0,20 ticks)
Clique table members: 449.
MIP emphasis: balance optimality and feasibility.
MIP search method: dynamic search.
Parallel mode: deterministic, using up to 16 threads.
Root relaxation solution time = 0,00 sec. (0,33 ticks)

        Nodes                                         Cuts/
   Node  Left     Objective  IInf  Best Integer    Best Bound    ItCnt     Gap

*     0+    0                          120,0000        0,0000           100,00%
*     0+    0                           76,0000        0,0000           100,00%
      0     0       40,0000   102       76,0000       40,0000       43   47,37%
      0     0       40,0000   102       76,0000     Cuts: 138       80   47,37%
      0     0       40,0000   102       76,0000     Cuts: 140      122   47,37%
      0     0       40,0000   102       76,0000     Cuts: 144      177   47,37%
*     0+    0                           75,0000       40,0000            46,67%
*     0+    0                           73,0000       40,0000            45,21%
      0     2       40,0000   113       73,0000       40,0000      177   45,21%
Elapsed time = 0,07 sec. (18,46 ticks, tree = 0,02 MB, solutions = 4)
*  1397+  793                           72,0000       51,0410            29,11%
*  1567+  879                           71,0000       51,6918            27,19%
*  3056+ 1271                           70,0000       53,4895            23,59%

Clique cuts applied:  86
Cover cuts applied:  268
Mixed integer rounding cuts applied:  1
Zero-half cuts applied:  4
Gomory fractional cuts applied:  2

Root node processing (before b&c):
  Real time             =    0,07 sec. (18,39 ticks)
Parallel b&c, 16 threads:
  Real time             =    0,51 sec. (224,46 ticks)
  Sync time (average)   =    0,24 sec.
  Wait time (average)   =    0,00 sec.
                          ------------
Total (root+branch&cut) =    0,58 sec. (242,85 ticks)
